# Default script for simulating Nafion membrane with or without electrodes
clear
units              si
dimension          3
boundary           p p p
atom_style         molecular

thermo             100
comm_modify        vel yes
neighbor           3e-9 bin
neigh_modify       one 5000
                  
variable           filename index nafion.data
variable           kB equal 1.38106e-23
variable           T equal 300.0/${kB}
variable           Seed equal 1234
variable           R equal 1.0
variable           Nsteps equal 3e4
variable           timestep equal 0.04

pair_style         dpd ${T} ${R} ${Seed}
bond_style         harmonic
read_data          ${filename}

shell              mkdir Dump
shell              cd Dump
dump               myDump all xyz 100 dump_*.xyz
                  
velocity           all create ${T} ${Seed}
reset_timestep     0
timestep           ${timestep}
fix                1 all nve
run                ${Nsteps}
                   
print              "All done."
